
#######################################################################
#
#                 Cambridge Crystallographic Data Centre
#                                CCDC 
#
#######################################################################
#
# If this CIF has been generated directly or indirectly from an entry in the 
# Cambridge Structural Database, then it will include bibliographic, chemical, 
# crystal, experimental, refinement or atomic coordinate data resulting from 
# the CCDC's data processing and validation procedures. Files generated from 
# CSD entries are Copyright 2014 Cambridge Crystallographic Data Centre. They 
# may be used in bona fide research applications only, and may not be copied or 
# further disseminated in any form, whether machine-readable or not, except for 
# the purposes of generating routine backup copies on your local computer 
# system.
# 
# Files arising from any other source may also contain material that is the 
# copyright of third parties, including the originator, and you should check 
# with the originator concerning the permitted uses of the information 
# contained in this CIF.
#
# For further information on the CCDC and the free tools enCIFer and Mercury
# for validating and visualising CIF files, please visit www.ccdc.cam.ac.uk
#
#######################################################################

data_HOKTUW
_audit_creation_date             1999-10-14
_database_code_depnum_ccdc_archive 'CCDC 117600; 101329'
_database_code_NBS               714588
_chemical_formula_moiety         'C16 H56 O20 Si16'
_chemical_name_systematic        octakis(Dimethylsiloxy)octasilsesquioxane
_journal_coden_Cambridge         1290
_journal_year                    1999
_journal_page_first              1087
_journal_name_full               Eur.J.Inorg.Chem.
loop_
_publ_author_name
N.Auner
B.Ziemer
B.Herrscahft
W.Ziche
P.John
J.Weis
_chemical_absolute_configuration unk
_diffrn_ambient_temperature      200
_exptl_crystal_density_meas      1.302
_exptl_crystal_density_diffrn    1.302
#These two values have been output from a single CSD field.
_refine_ls_R_factor_gt           0.1008
_refine_ls_wR_factor_gt          0.1008
_diffrn_radiation_probe          x-ray
_symmetry_cell_setting           rhombohedral
_symmetry_space_group_name_H-M   'R -3'
_symmetry_Int_Tables_number      148
loop_
_symmetry_equiv_pos_site_id
_symmetry_equiv_pos_as_xyz
1 x,y,z
2 -y,x-y,z
3 -x+y,-x,z
4 2/3+x,1/3+y,1/3+z
5 2/3-y,1/3+x-y,1/3+z
6 2/3-x+y,1/3-x,1/3+z
7 1/3+x,2/3+y,2/3+z
8 2/3+y,1/3-x+y,1/3-z
9 2/3+x-y,1/3+x,1/3-z
10 -x,-y,-z
11 y,-x+y,-z
12 x-y,x,-z
13 1/3-x,2/3-y,2/3-z
14 1/3+y,2/3-x+y,2/3-z
15 1/3+x-y,2/3+x,2/3-z
16 2/3-x,1/3-y,1/3-z
17 1/3-y,2/3+x-y,2/3+z
18 1/3-x+y,2/3-x,2/3+z
_cell_length_a                   16.103(3)
_cell_length_b                   16.103(3)
_cell_length_c                   17.349(4)
_cell_angle_alpha                90
_cell_angle_beta                 90
_cell_angle_gamma                120.00
_cell_volume                     3896
_exptl_crystal_colour            colorless
_exptl_crystal_description       prismatic
_chemical_melting_point          603K
_cell_formula_units_Z            3
loop_
_atom_site_label
_atom_site_type_symbol
_atom_site_fract_x
_atom_site_fract_y
_atom_site_fract_z
C1 C 0.2616(30) 0.5952(32) -0.1613(23)
C2 C 0.3437(58) 0.5399(57) -0.2014(37)
C3 C 0.3333 0.6667 -0.2495(41)
C5 C -0.1060(29) 0.5679(32) 0.0911(23)
C8 C 0.0168(33) 0.6835(31) -0.0714(23)
O1 O 0.2404(3) 0.6683(3) 0.0433(2)
O2 O 0.1457(3) 0.5801(3) 0.1676(2)
O3 O 0.3079(14) 0.6551(13) -0.0787(4)
O4 O 0.0901(3) 0.6790(4) 0.0856(3)
Si1 Si 0.3333 0.6667 0.01285(15)
Si2 Si 0.18066(12) 0.67403(13) 0.11521(9)
Si3 Si 0.3352(16) 0.6302(10) -0.1667(6)
Si4 Si 0.0096(3) 0.6667(5) 0.0321(3)
O3A O 0.3449 0.6528 -0.0787
C1A C 0.4048 0.6664 -0.1613
Si3A Si 0.3698 0.705 -0.1667
C1B C 0.3336 0.7384 -0.1613
O3B O 0.3472 0.6921 -0.0787
Si2H Si 0.173297 0.513993 0.218123
O1H O 0.238767 0.573733 0.290033
Si1H Si 0.333267 0.666633 0.320483
O1G O 0.334967 0.761233 0.290033
Si2G Si 0.340697 0.826703 0.218123
O2G O 0.246767 0.767733 0.165733
O2B O 0.4344 0.8543 0.1676
Si2B Si 0.49337 0.81934 0.11521
O1B O 0.4279 0.7596 0.0433
O1A O 0.3317 0.5721 0.0433
Si2A Si 0.32597 0.50663 0.11521
O2A O 0.4199 0.5656 0.1676
Si2O Si 0.486007 0.659303 0.218123
O1O O 0.426267 0.665033 0.290033
O3O O 0.358767 0.678233 0.412033
C1O C 0.405067 0.738133 0.494633
Si3O Si 0.331467 0.703133 0.500033
C1H C 0.333067 0.594933 0.494633
O3H O 0.319467 0.641233 0.412033
O3G O 0.321767 0.680533 0.412033
C1G C 0.261867 0.666933 0.494633
Si3G Si 0.296867 0.628333 0.500033
Si3H Si 0.371667 0.668533 0.500033
C2G C 0.206567 0.529533 0.534733
C3G C 0.333367 0.666733 0.582833
C2O C 0.322967 0.793433 0.534733
C2H C 0.470467 0.677033 0.534733
O2O O 0.520967 0.753233 0.165733
O4B O 0.5889 0.9099 0.0856
Si4B Si 0.6571 0.9904 0.0321
C5B C 0.6739 1.106 0.0911
C8B C 0.6667 0.9832 -0.0714
O4O O 0.576567 0.654333 0.247733
Si4O Si 0.657067 0.666633 0.301233
C5O C 0.772667 0.765433 0.242233
C8O C 0.649867 0.649833 0.404733
O2H O 0.232267 0.479033 0.165733
O4H O 0.0777667 0.423433 0.247733
Si4H Si 0.00956667 0.342933 0.301233
C5H C -0.00723333 0.227333 0.242233
C8H C -3.33333e-05 0.350133 0.404733
O4A O 0.321 0.4111 0.0856
Si4A Si 0.3333 0.3429 0.0321
C5A C 0.4321 0.3261 0.0911
C8A C 0.3165 0.3333 -0.0714
Si3B Si 0.295 0.6648 -0.1667
C2A C 0.4601 0.8038 -0.2014
C2B C 0.1962 0.6563 -0.2014
O4G O 0.345667 0.922233 0.247733
Si4G Si 0.333367 0.990433 0.301233
C5G C 0.234567 1.00723 0.242233
C8G C 0.350167 1.00003 0.404733
C4? C 0.0636(32) 0.6494(30) -0.0858(22)
C6? C -0.0436(59) 0.5952(60) -0.0031(46)
C7? C -0.0954(38) 0.6313(39) 0.0347(30)
C9? C -0.0238(38) 0.7166(38) -0.0127(30)

#END

