
#######################################################################
#
#                 Cambridge Crystallographic Data Centre
#                                CCDC 
#
#######################################################################
#
# If this CIF has been generated directly or indirectly from an entry in the 
# Cambridge Structural Database, then it will include bibliographic, chemical, 
# crystal, experimental, refinement or atomic coordinate data resulting from 
# the CCDC's data processing and validation procedures. Files generated from 
# CSD entries are Copyright 2013 Cambridge Crystallographic Data Centre. They 
# may be used in bona fide research applications only, and may not be copied or 
# further disseminated in any form, whether machine-readable or not, except for 
# the purposes of generating routine backup copies on your local computer 
# system.
# 
# Files arising from any other source may also contain material that is the 
# copyright of third parties, including the originator, and you should check 
# with the originator concerning the permitted uses of the information 
# contained in this CIF.
#
# For further information on the CCDC and the free tools enCIFer and Mercury
# for validating and visualising CIF files, please visit www.ccdc.cam.ac.uk
#
#######################################################################

data_OCMSIO03
_audit_creation_date             2009-02-24
_database_code_depnum_ccdc_archive 'CCDC 705919'
_chemical_formula_moiety         'C8 H24 O12 Si8'
_chemical_name_systematic        octakis(Methylsilsesquioxane)
_journal_coden_Cambridge         119
_journal_volume                  887
_journal_year                    2008
_journal_page_first              159
_journal_name_full               J.Mol.Struct.
loop_
_publ_author_name
B.Handke
W.Jastrzebski
W.Mozgawa
A.Kowalewska
_chemical_absolute_configuration unk
_diffrn_ambient_temperature      298
_exptl_crystal_density_meas      1.5
_exptl_crystal_density_diffrn    1.504
#These two values have been output from a single CSD field.
_refine_ls_R_factor_gt           0.0447
_refine_ls_wR_factor_gt          0.0447
_diffrn_radiation_probe          x-ray
_symmetry_cell_setting           rhombohedral
_symmetry_space_group_name_H-M   'R -3'
_symmetry_Int_Tables_number      148
loop_
_symmetry_equiv_pos_site_id
_symmetry_equiv_pos_as_xyz
1 x,y,z
2 -y,x-y,z
3 -x+y,-x,z
4 1/3+x,2/3+y,2/3+z
5 1/3-y,2/3+x-y,2/3+z
6 1/3-x+y,2/3-x,2/3+z
7 2/3+x,1/3+y,1/3+z
8 2/3-y,1/3+x-y,1/3+z
9 2/3-x+y,1/3-x,1/3+z
10 -x,-y,-z
11 y,-x+y,-z
12 x-y,x,-z
13 2/3-x,1/3-y,1/3-z
14 2/3+y,1/3-x+y,1/3-z
15 2/3+x-y,1/3+x,1/3-z
16 1/3-x,2/3-y,2/3-z
17 1/3+y,2/3-x+y,2/3-z
18 1/3+x-y,2/3+x,2/3-z
_cell_length_a                   12.515870
_cell_length_b                   12.515870
_cell_length_c                   13.114000
_cell_angle_alpha                90
_cell_angle_beta                 90
_cell_angle_gamma                120.0
_cell_volume                     1779.05
_cell_formula_units_Z            3
loop_
_atom_site_label
_atom_site_type_symbol
_atom_site_fract_x
_atom_site_fract_y
_atom_site_fract_z
C1 C 0.325 -0.029 0.114
H1 H 0.37703 0.03703 0.15
H2 H 0.37 -0.02899 0.061
H3 H 0.31001 -0.09098 0.15094
C2 C 0.029(2) 0.354(2) 0.114(1)
H4 H 0.028990 0.398990 0.061000
H5 H 0.090980 0.400990 0.150940
H6 H -0.037030 0.340000 0.150000
C3 C -0.029 -0.354 -0.114
H7 H -0.02899 -0.39899 -0.061
H8 H -0.09098 -0.40099 -0.15094
H9 H 0.03703 -0.34 -0.15
C4 C 0.001(2) 0.000(2) 0.346(1)
H10 H -0.06199 0.00699 0.36599
H11 H 0.068980 0.061990 0.365990
H12 H -0.00699 -0.06898 0.36599
C5 C 0.354 0.325 -0.114
H13 H 0.39899 0.37 -0.061
H14 H 0.34 0.37703 -0.15
H15 H 0.40099 0.31001 -0.15094
C6 C -0.354 -0.325 0.114
H16 H -0.39899 -0.37 0.061
H17 H -0.34 -0.37703 0.15
H18 H -0.40099 -0.31001 0.15094
C7 C -0.325 0.029 -0.114
H19 H -0.37703 -0.03703 -0.15
H20 H -0.31001 0.09098 -0.15094
H21 H -0.37 0.02899 -0.061
C8 C 0 -0.001 -0.346
H22 H 0.06199 -0.00699 -0.36599
H23 H 0.00699 0.06898 -0.36599
H24 H -0.06898 -0.06199 -0.36599
O1 O -0.1282 -0.1135 0.1628
Si1 Si 0.0008(5) 0.0014(4) 0.2068(3)
O2 O 0.0147(8) 0.1282(6) 0.1628(5)
Si2 Si 0.0169(5) 0.2122(4) 0.0697(3)
O3 O -0.106 0.1369 -0.0018
Si3 Si -0.1953 0.0169 -0.0697
O4 O -0.2429 -0.106 0.0018
Si4 Si -0.2122 -0.1953 0.0697
O5 O -0.1135 0.0147 -0.1628
O6 O -0.0147 -0.1282 -0.1628
Si5 Si -0.0169 -0.2122 -0.0697
Si6 Si 0.1953 -0.0169 0.0697
O7 O 0.2429 0.106 -0.0018
Si7 Si 0.2122 0.1953 -0.0697
O8 O 0.1282 0.1135 -0.1628
Si8 Si 0.0014 0.0006 -0.2068
O9 O 0.106 -0.1369 0.0018
O10 O -0.1369 -0.2429 -0.0018
O11 O 0.1135 -0.0147 0.1628
O12 O 0.1369(8) 0.2429(6) 0.0018(5)

#END

